#include "../../pdcif2.inc"

macro ciffile { "first_2.cif" }

Out_CIF2_initialise(ciffile)
CIF2_set_audit_dataset_id("385c8a89-8461-4374-ab19-61de7f619721")

/*
Input file and data used with permission from
http://community.dur.ac.uk/john.evans/topas_workshop/tutorial_multitopas.htm

Some slight modification done.
*/

'--------------------------------------------------------------
'Fitting Si + Al2O3 temperature standard
'Data collected with hot air blower so T(actual) < T(set) at high T
'File set up so that either topas v6 #list command or topas <v6 + command file can be used
'--------------------------------------------------------------
r_wp  15.1760054 r_exp  9.61183652 r_p  11.5490439 r_wp_dash  27.3571221 r_p_dash  27.5422758 r_exp_dash  17.3268379 weighted_Durbin_Watson  1.42619258 gof  1.57888717

iters 100000
chi2_convergence_criteria 0.001
do_errors

Backup_INP
out_file = Concat(String(INP_File), ".INP");
num_runs 8
#list File_Name Temperature {
xye_files\576460-mac-001_reb_0003.xye	310.49
xye_files\576464-mac-001_reb_0003.xye	383.07
xye_files\576468-mac-001_reb_0003.xye	457.98
xye_files\576472-mac-001_reb_0003.xye	534.38
xye_files\576476-mac-001_reb_0003.xye	611.44
xye_files\576480-mac-001_reb_0003.xye	754.81
xye_files\576484-mac-001_reb_0003.xye	935.48
xye_files\576488-mac-001_reb_0003.xye	1092.2
}

prm !te =Temperature(Run_Number);:1092.2
CIF2_set_temperature(te)
CIF2_set_cif_id(Run_Number)
CIF2_set_scan_method("fixed")
CIF2_set_diffractometer_name("synchrotron somewhere")


macro filename { File_Name(Run_Number) }

#if Run_Number == 0;
system_before_save_OUT { del ciffile }
#endif

xdd filename
	start_X 5
	finish_X 65
	x_calculation_step = Yobs_dx_at(Xo);
	'lambda derived on peak shape derived on 574646-mac-001_offline.xye on 21/4/2017.xye by John 2016
	'Si zero was -1.69258/1000 degrees
	'lam ymin_on_ymax 0.00001 la 1.0 lo   0.8257653_8.44468382e-008 lh 0.1

    CIF2_set_instr_id("Synchrotron")
    Out_CIF2_wavelength(ciffile, "synchrotron", CIF_ID, 0.00001, 1, 0.8257653_8.44468382e-008, 0.1, )

	LP_Factor( 90) 'change the LP correction  or lh value if required
    prm zero  0.702030689`_0.0431303129
    pdCIF2_Debye_Scherrer_specimen_displacement(, (zero/1000), , 0, , 0)
	bkg @  36.2164998`_0.0681718559 -15.9892443`_0.118585552 -1.56830543`_0.110157431  4.82566462`_0.108708192 -5.92525038`_0.108772157  10.8738579`_0.108404506 -7.23640205`_0.103724958  1.09789864`_0.101881879  5.27192848`_0.0986908722 -4.72215809`_0.0992739785  4.44257455`_0.0957502116 -2.02733956`_0.0950663792 -0.304215677`_0.0931085307  3.91286265`_0.0932683102 -3.08636171`_0.0894892281  2.43761559`_0.0893011924 -1.43191394`_0.0811117258  0.751334723`_0.0791388058


    str
		phase_name "Al2O3"
		CIF2_set_formula_units_Z(6)
        CIF2_set_sum_formula("Al2 O3")
		Phase_Density_g_on_cm3( 3.90926431`_2.21262296e-05)
		'Sample size/strain include these lines for your sample
  		LVol_FWHM_CS_G_L(1, 417.265293`_33.4110137, 0.89, 574.088824`_59.8041978, csgc, 3165.44409`_3407.75613_LIMIT_MIN_0.3 , cslc, 674.538821`_41.5843996)
  		e0_from_Strain( 7.06876062e-05`_4.11426771e-06, sgc, 0.0265616488`_0.0015324543, slc, 0.0100632353`_0.001819648)
		scale  scal_1  6.06452566e-05`_2.713e-07
		MVW( 611.768, 259.861`_0.001, 72.183`_0.136)
		Trigonal(lpa_1  4.789101`_0.000011, lpc_1  13.082844`_0.000044)
        CIF2_set_space_group_id("r_-3_c:H")
		space_group "r_-3_c:H"
		site Al1    x 0     y 0 z 0.148 occ Al+3 1 beq bval_1  0.80193`_0.01718
		site O1     x 0.306 y 0 z 0.25  occ O-2  1 beq bval_1  0.80193`_0.01718

	str
		phase_name "Si"
		CIF2_set_formula_units_Z(8)
		Phase_Density_g_on_cm3( 2.30708442`_1.04003279e-05)
		scale  scal_2  0.000102248988`_5.211e-07
		MVW( 224.684, 161.718`_0.001, 27.817`_0.136)
		Cubic(lpa_2  5.448196`_0.000008)
        CIF2_set_space_group_id("Fd-3mS")
		space_group "Fd-3mS"
		site Si1    x 0 y 0 z 0 occ Si 1 beq bval_2  1.75613`_0.02095

for strs {
		'peak shape derived on 574646-mac-001_offline.xye on 21/4/2017
		'This is a fixed instrumental profile
		'Just use size/strain on your sample
		TCHZ_Peak_Type(!pku,-0.00072_0.00002,!pkv, -0.00008_0.00001,!pkw, -0.00080_0.00002,!pkz, 0.00087_0.00002,!pky, 0.01490_0.00011,!pkx, 0.00175_0.00002)
		Simple_Axial_Model(!axial, 2.12938_0.00228)
}


Out_pdCIF2(ciffile, "proc")


C_matrix_normalized
{
                             1   2   3   4   5   6   7   8   9  10  11  12  13  14  15  16  17  18  19  20  21  22  23  24  25  26  27  28  29  30
zero                   1:  100  -0  -0   0   0   0   0  -0   0   0   0   0   0   0   0   0   0   0   0   0  -1  -2  -7  -2   1  58  41  -3  -7  84
bkg_rec22E1E2934A8_    2:   -0 100 -20  60  -6  41   1  33  -4  40  -8  36  -4  27   1  19   3  15   2   3   2  -7   7 -11  12  -0  -0  -1   1  -0
bkg_rec22E1E293550_    3:   -0 -20 100 -17  60  -2  44  -2  44  -7  45  -7  38  -2  28   1  23   0  19   9   7 -12   7 -12  13   0   0   1   2  -0
bkg_rec22E1E2935F8_    4:    0  60 -17 100 -14  59  -6  51  -3  43  -5  41  -5  35  -3  27  -1  19   2   4   1  -1  -2   1   1   0   0   0  -0   0
bkg_rec22E1E2936A0_    5:    0  -6  60 -14 100 -18  65  -9  52  -2  40  -2  39  -5  36  -7  29  -3  20  -7  -6  10  -6   9  -9   0   0  -2  -2   0
bkg_rec22E1E293748_    6:    0  41  -2  59 -18 100 -22  63  -7  44   3  34  -2  37  -8  33  -6  23   1  -1   1  -2   2  -2  -1   0   0  -0  -1   0
bkg_rec22E1E2937F0_    7:    0   1  44  -6  65 -22 100 -21  60  -4  42   2  35  -4  38 -10  33  -7  22  -2  -1   3  -3   4  -4  -0  -0  -0  -1   0
bkg_rec22E1E293898_    8:   -0  33  -2  51  -9  63 -21 100 -17  56  -3  40   0  34  -6  34  -9  25  -3  -4  -3   6  -4   6  -6  -0  -0  -1  -1  -0
bkg_rec22E1E293940_    9:    0  -4  44  -3  52  -7  60 -17 100 -17  57  -4  42   0  34  -5  33  -8  25  -0   1  -1   1  -1  -1   0   0   0  -0   0
bkg_rec22E1E2939E8_   10:    0  40  -7  43  -2  44  -4  56 -17 100 -19  55  -6  38  -0  27  -3  25  -3  -0   0  -0   0  -1   0   0   0  -1  -1   0
bkg_rec22E1E293A90_   11:    0  -8  45  -5  40   3  42  -3  57 -19 100 -19  55  -4  37   2  26  -2  26   1   0  -1   0  -1   2   0  -0   0  -0   0
bkg_rec22E1E293B38_   12:    0  36  -7  41  -2  34   2  40  -4  55 -19 100 -19  51  -5  31   3  19   3   2   2  -3   2  -3   3   0  -0  -1  -1   0
bkg_rec22E1E293BE0_   13:    0  -4  38  -5  39  -2  35   0  42  -6  55 -19 100 -20  51  -6  33   2  20   1   1  -2   2  -3   2   0   0  -1  -1   0
bkg_rec22E1E293C88_   14:    0  27  -2  35  -5  37  -4  34   0  38  -4  51 -20 100 -21  49  -5  28   6   2   1  -2   2  -3   3   0   0   0  -1   0
bkg_rec22E1E293D30_   15:    0   1  28  -3  36  -8  38  -6  34  -0  37  -5  51 -21 100 -23  49  -8  29   1   0  -0  -0   0   1   0   0  -1  -1   0
bkg_rec22E1E293DD8_   16:    0  19   1  27  -7  33 -10  34  -5  27   2  31  -6  49 -23 100 -23  42  -4   4   2  -4   2  -4   5   0   0  -1  -1   0
bkg_rec22E1E293E80_   17:    0   3  23  -1  29  -6  33  -9  33  -3  26   3  33  -5  49 -23 100 -25  43   1   0  -2   2  -3   4   0   0   1   0   0
bkg_rec22E1E293F28_   18:    0  15   0  19  -3  23  -7  25  -8  25  -2  19   2  28  -8  42 -25 100 -19   3   3  -4   3  -4   5   0   0  -2  -2   0
bkg_rec22E1E293FD0_   19:    0   2  19   2  20   1  22  -3  25  -3  26   3  20   6  29  -4  43 -19 100   2   1  -3   1  -2   2   0  -0   0  -0   0
scal_1                20:    0   3   9   4  -7  -1  -2  -4  -0  -0   1   2   1   2   1   4   1   3   2 100  20 -32  16 -28  79   1   0   0  -0   0
csgc                  21:   -1   2   7   1  -6   1  -1  -3   1   0   0   2   1   1   0   2   0   3   1  20 100 -73  80 -66  24  -2  -2   0  -0  -1
cslc                  22:   -2  -7 -12  -1  10  -2   3   6  -1  -0  -1  -3  -2  -2  -0  -4  -2  -4  -3 -32 -73 100 -69  95 -43  -1  -0   0   1  -2
sgc                   23:   -7   7   7  -2  -6   2  -3  -4   1   0   0   2   2   2  -0   2   2   3   1  16  80 -69 100 -76  28  -9  -4   0  -0  -6
slc                   24:   -2 -11 -12   1   9  -2   4   6  -1  -1  -1  -3  -3  -3   0  -4  -3  -4  -2 -28 -66  95 -76 100 -46  -2  -1   0   2  -2
bval_1                25:    1  12  13   1  -9  -1  -4  -6  -1   0   2   3   2   3   1   5   4   5   2  79  24 -43  28 -46 100   2   1   0  -1   1
lpa_1                 26:   58  -0   0   0   0   0  -0  -0   0   0   0   0   0   0   0   0   0   0   0   1  -2  -1  -9  -2   2 100 -11  -2  -5  49
lpc_1                 27:   41  -0   0   0   0   0  -0  -0   0   0  -0  -0   0   0   0   0   0   0  -0   0  -2  -0  -4  -1   1 -11 100  -1  -3  35
scal_2                28:   -3  -1   1   0  -2  -0  -0  -1   0  -1   0  -1  -1   0  -1  -1   1  -2   0   0   0   0   0   0   0  -2  -1 100  76  -2
bval_2                29:   -7   1   2  -0  -2  -1  -1  -1  -0  -1  -0  -1  -1  -1  -1  -1   0  -2  -0  -0  -0   1  -0   2  -1  -5  -3  76 100  -6
lpa_2                 30:   84  -0  -0   0   0   0   0  -0   0   0   0   0   0   0   0   0   0   0   0   0  -1  -2  -6  -2   1  49  35  -2  -6 100
}